c seed= 1690641811
p cnf 8 32
-3 5 -1 0
-6 5 -1 0
8 -7 -5 0
-2 8 -4 0
6 3 4 0
4 1 8 0
-8 5 -7 0
1 2 -3 0
-4 -6 5 0
-3 -6 -4 0
7 1 -2 0
8 -3 -7 0
3 7 -6 0
1 2 -3 0
8 -2 5 0
1 -3 2 0
-8 -7 2 0
3 -8 -1 0
8 6 -4 0
6 7 5 0
1 6 2 0
-8 6 2 0
-3 7 -6 0
-5 -7 4 0
-5 3 2 0
-7 2 -3 0
-5 -4 -7 0
-1 7 3 0
-2 1 -5 0
6 5 2 0
-2 -1 6 0
6 -3 4 0
